65 1034 5
0 1 1
0 2 1
0 3 1
0 6 1
0 7 1
0 8 1
0 11 1
0 14 1
0 15 1
0 18 1
0 19 1
0 22 1
0 23 1
0 24 1
0 26 1
0 27 1
0 28 1
0 29 1
0 30 1
0 31 1
0 34 1
0 35 1
0 37 1
0 43 1
0 45 1
0 51 1
0 53 1
0 54 1
0 55 1
0 56 1
0 60 1
0 61 1
0 62 1
1 3 1
1 5 1
1 7 1
1 11 1
1 13 1
1 15 1
1 18 1
1 20 1
1 23 1
1 24 1
1 27 1
1 29 1
1 30 1
1 31 1
1 32 1
1 34 1
1 36 1
1 38 1
1 41 1
1 42 1
1 43 1
1 44 1
1 48 1
1 51 1
1 52 1
1 53 1
1 54 1
1 55 1
1 57 1
1 58 1
1 60 1
1 61 1
1 62 1
1 63 1
1 64 1
2 4 1
2 6 1
2 9 1
2 12 1
2 14 1
2 18 1
2 19 1
2 20 1
2 21 1
2 24 1
2 25 1
2 26 1
2 28 1
2 30 1
2 31 1
2 35 1
2 37 1
2 41 1
2 42 1
2 43 1
2 45 1
2 47 1
2 48 1
2 52 1
2 54 1
2 55 1
2 56 1
2 57 1
2 59 1
2 60 1
2 62 1
3 4 1
3 5 1
3 7 1
3 9 1
3 10 1
3 11 1
3 13 1
3 14 1
3 15 1
3 18 1
3 19 1
3 20 1
3 24 1
3 26 1
3 29 1
3 31 1
3 32 1
3 33 1
3 36 1
3 38 1
3 39 1
3 40 1
3 41 1
3 43 1
3 44 1
3 48 1
3 52 1
3 55 1
3 58 1
3 59 1
3 63 1
3 64 1
4 6 1
4 12 1
4 14 1
4 15 1
4 17 1
4 18 1
4 20 1
4 22 1
4 24 1
4 25 1
4 26 1
4 27 1
4 34 1
4 35 1
4 36 1
4 38 1
4 39 1
4 40 1
4 41 1
4 44 1
4 47 1
4 51 1
4 52 1
4 53 1
4 54 1
4 58 1
4 61 1
4 62 1
4 64 1
5 7 1
5 9 1
5 11 1
5 13 1
5 14 1
5 15 1
5 16 1
5 17 1
5 18 1
5 19 1
5 23 1
5 24 1
5 26 1
5 30 1
5 31 1
5 32 1
5 34 1
5 35 1
5 36 1
5 38 1
5 40 1
5 41 1
5 45 1
5 46 1
5 49 1
5 50 1
5 52 1
5 54 1
5 56 1
5 60 1
5 61 1
5 64 1
6 7 1
6 8 1
6 9 1
6 11 1
6 16 1
6 17 1
6 18 1
6 19 1
6 23 1
6 27 1
6 32 1
6 34 1
6 36 1
6 37 1
6 39 1
6 42 1
6 45 1
6 47 1
6 50 1
6 51 1
6 52 1
6 55 1
6 57 1
6 58 1
6 59 1
6 60 1
6 61 1
6 63 1
6 64 1
7 8 1
7 10 1
7 11 1
7 14 1
7 15 1
7 18 1
7 19 1
7 21 1
7 22 1
7 24 1
7 25 1
7 26 1
7 28 1
7 32 1
7 34 1
7 37 1
7 38 1
7 41 1
7 42 1
7 46 1
7 49 1
7 51 1
7 52 1
7 54 1
7 55 1
7 57 1
7 62 1
8 11 1
8 15 1
8 17 1
8 18 1
8 20 1
8 21 1
8 22 1
8 23 1
8 24 1
8 25 1
8 28 1
8 30 1
8 32 1
8 34 1
8 35 1
8 36 1
8 38 1
8 41 1
8 42 1
8 43 1
8 44 1
8 46 1
8 51 1
8 58 1
8 61 1
8 62 1
8 63 1
9 12 1
9 13 1
9 14 1
9 21 1
9 22 1
9 24 1
9 30 1
9 34 1
9 35 1
9 37 1
9 39 1
9 40 1
9 41 1
9 42 1
9 45 1
9 46 1
9 48 1
9 51 1
9 52 1
9 54 1
9 55 1
9 57 1
9 58 1
9 59 1
9 60 1
9 64 1
10 11 1
10 12 1
10 13 1
10 14 1
10 15 1
10 16 1
10 17 1
10 20 1
10 25 1
10 26 1
10 27 1
10 28 1
10 29 1
10 32 1
10 37 1
10 41 1
10 51 1
10 53 1
10 54 1
10 56 1
10 57 1
10 60 1
10 61 1
10 62 1
10 63 1
10 64 1
11 12 1
11 13 1
11 14 1
11 17 1
11 24 1
11 28 1
11 30 1
11 31 1
11 32 1
11 34 1
11 36 1
11 37 1
11 45 1
11 50 1
11 52 1
11 54 1
11 55 1
11 57 1
11 58 1
12 14 1
12 16 1
12 17 1
12 24 1
12 25 1
12 26 1
12 27 1
12 29 1
12 30 1
12 31 1
12 32 1
12 37 1
12 38 1
12 39 1
12 41 1
12 45 1
12 46 1
12 47 1
12 48 1
12 54 1
12 55 1
12 57 1
12 58 1
12 60 1
12 61 1
12 62 1
13 14 1
13 20 1
13 21 1
13 23 1
13 26 1
13 32 1
13 34 1
13 38 1
13 40 1
13 41 1
13 44 1
13 45 1
13 46 1
13 49 1
13 50 1
13 51 1
13 53 1
13 54 1
13 55 1
13 56 1
13 58 1
13 59 1
13 60 1
13 61 1
14 15 1
14 16 1
14 17 1
14 19 1
14 20 1
14 21 1
14 22 1
14 23 1
14 24 1
14 25 1
14 28 1
14 30 1
14 31 1
14 32 1
14 35 1
14 36 1
14 38 1
14 39 1
14 40 1
14 41 1
14 49 1
14 50 1
14 51 1
14 52 1
14 54 1
14 57 1
14 58 1
14 60 1
14 62 1
14 63 1
15 20 1
15 21 1
15 22 1
15 25 1
15 26 1
15 27 1
15 28 1
15 29 1
15 30 1
15 32 1
15 35 1
15 36 1
15 37 1
15 38 1
15 41 1
15 42 1
15 45 1
15 48 1
15 51 1
15 52 1
15 53 1
15 56 1
16 18 1
16 22 1
16 23 1
16 24 1
16 25 1
16 30 1
16 31 1
16 33 1
16 34 1
16 35 1
16 36 1
16 41 1
16 42 1
16 43 1
16 44 1
16 46 1
16 47 1
16 48 1
16 52 1
16 53 1
16 55 1
16 58 1
16 60 1
16 63 1
17 21 1
17 25 1
17 26 1
17 28 1
17 29 1
17 36 1
17 37 1
17 40 1
17 41 1
17 42 1
17 43 1
17 45 1
17 51 1
17 54 1
17 56 1
17 60 1
17 62 1
17 63 1
18 19 1
18 21 1
18 23 1
18 24 1
18 25 1
18 26 1
18 27 1
18 28 1
18 29 1
18 32 1
18 34 1
18 35 1
18 40 1
18 42 1
18 46 1
18 49 1
18 50 1
18 54 1
18 59 1
18 60 1
18 61 1
18 62 1
18 63 1
18 64 1
19 21 1
19 22 1
19 25 1
19 27 1
19 32 1
19 33 1
19 34 1
19 35 1
19 36 1
19 38 1
19 39 1
19 41 1
19 42 1
19 43 1
19 44 1
19 49 1
19 50 1
19 51 1
19 53 1
19 54 1
20 22 1
20 25 1
20 26 1
20 28 1
20 33 1
20 38 1
20 42 1
20 43 1
20 47 1
20 49 1
20 53 1
20 57 1
21 23 1
21 28 1
21 30 1
21 31 1
21 32 1
21 35 1
21 38 1
21 39 1
21 40 1
21 41 1
21 42 1
21 46 1
21 48 1
21 51 1
21 52 1
21 53 1
21 54 1
21 58 1
21 59 1
22 23 1
22 24 1
22 26 1
22 27 1
22 28 1
22 29 1
22 32 1
22 33 1
22 34 1
22 36 1
22 37 1
22 38 1
22 39 1
22 41 1
22 43 1
22 45 1
22 48 1
22 50 1
22 53 1
22 54 1
22 56 1
22 59 1
22 60 1
22 61 1
22 62 1
23 25 1
23 26 1
23 27 1
23 34 1
23 36 1
23 39 1
23 40 1
23 41 1
23 42 1
23 44 1
23 45 1
23 49 1
23 51 1
23 53 1
23 56 1
23 57 1
23 58 1
23 59 1
23 64 1
24 25 1
24 29 1
24 31 1
24 32 1
24 33 1
24 34 1
24 36 1
24 37 1
24 38 1
24 40 1
24 41 1
24 42 1
24 48 1
24 50 1
24 51 1
24 52 1
24 54 1
24 55 1
24 57 1
24 58 1
24 59 1
24 60 1
24 61 1
25 29 1
25 31 1
25 33 1
25 34 1
25 37 1
25 38 1
25 40 1
25 43 1
25 45 1
25 46 1
25 47 1
25 48 1
25 49 1
25 51 1
25 52 1
25 56 1
25 57 1
25 58 1
25 59 1
25 60 1
25 61 1
25 62 1
25 63 1
25 64 1
26 29 1
26 32 1
26 33 1
26 34 1
26 35 1
26 36 1
26 37 1
26 38 1
26 39 1
26 41 1
26 42 1
26 43 1
26 44 1
26 46 1
26 47 1
26 48 1
26 49 1
26 52 1
26 53 1
26 57 1
26 59 1
26 61 1
26 62 1
26 64 1
27 28 1
27 29 1
27 34 1
27 39 1
27 42 1
27 43 1
27 46 1
27 47 1
27 48 1
27 49 1
27 50 1
27 53 1
27 58 1
27 59 1
28 29 1
28 31 1
28 34 1
28 35 1
28 43 1
28 51 1
28 54 1
28 57 1
28 58 1
28 59 1
28 63 1
29 30 1
29 34 1
29 35 1
29 36 1
29 38 1
29 39 1
29 40 1
29 42 1
29 43 1
29 44 1
29 46 1
29 47 1
29 48 1
29 49 1
29 50 1
29 52 1
29 53 1
29 55 1
29 58 1
29 59 1
29 60 1
29 62 1
29 64 1
30 31 1
30 32 1
30 33 1
30 36 1
30 37 1
30 40 1
30 42 1
30 43 1
30 44 1
30 46 1
30 48 1
30 52 1
30 54 1
30 55 1
30 56 1
30 57 1
30 59 1
30 60 1
30 62 1
31 34 1
31 37 1
31 38 1
31 39 1
31 40 1
31 42 1
31 44 1
31 46 1
31 47 1
31 48 1
31 49 1
31 53 1
31 55 1
31 56 1
31 57 1
31 58 1
31 59 1
31 61 1
31 62 1
31 63 1
32 33 1
32 35 1
32 36 1
32 37 1
32 38 1
32 39 1
32 42 1
32 43 1
32 46 1
32 51 1
32 52 1
32 53 1
32 55 1
32 59 1
32 62 1
32 64 1
33 34 1
33 35 1
33 38 1
33 40 1
33 46 1
33 47 1
33 49 1
33 51 1
33 52 1
33 54 1
33 55 1
33 56 1
33 57 1
33 58 1
33 59 1
33 64 1
34 35 1
34 36 1
34 38 1
34 44 1
34 52 1
34 54 1
34 55 1
34 56 1
34 58 1
34 60 1
35 36 1
35 37 1
35 43 1
35 53 1
35 54 1
35 56 1
35 57 1
35 59 1
35 61 1
35 62 1
36 37 1
36 39 1
36 41 1
36 44 1
36 47 1
36 48 1
36 49 1
36 53 1
36 54 1
36 55 1
36 58 1
36 59 1
36 61 1
36 62 1
36 63 1
37 38 1
37 40 1
37 43 1
37 44 1
37 45 1
37 51 1
37 53 1
37 57 1
37 59 1
37 61 1
37 62 1
38 40 1
38 43 1
38 44 1
38 48 1
38 50 1
38 51 1
38 53 1
38 55 1
38 57 1
38 59 1
38 60 1
38 63 1
38 64 1
39 40 1
39 41 1
39 43 1
39 44 1
39 46 1
39 48 1
39 51 1
39 53 1
39 54 1
39 55 1
39 56 1
39 57 1
39 61 1
40 44 1
40 50 1
40 51 1
40 53 1
40 56 1
40 57 1
40 59 1
40 61 1
40 63 1
40 64 1
41 43 1
41 45 1
41 47 1
41 48 1
41 51 1
41 54 1
41 57 1
41 58 1
41 59 1
41 61 1
41 63 1
42 43 1
42 44 1
42 45 1
42 47 1
42 48 1
42 49 1
42 50 1
42 51 1
42 52 1
42 53 1
42 59 1
42 61 1
42 62 1
42 63 1
43 44 1
43 45 1
43 46 1
43 48 1
43 49 1
43 51 1
43 52 1
43 55 1
43 56 1
43 57 1
43 58 1
43 59 1
43 63 1
44 45 1
44 46 1
44 47 1
44 49 1
44 50 1
44 55 1
44 56 1
44 57 1
44 58 1
44 59 1
44 60 1
44 61 1
44 63 1
45 49 1
45 50 1
45 51 1
45 53 1
45 54 1
45 55 1
45 57 1
45 58 1
45 62 1
46 48 1
46 49 1
46 50 1
46 56 1
46 57 1
46 60 1
46 61 1
46 62 1
46 63 1
47 48 1
47 52 1
47 54 1
47 55 1
47 57 1
47 58 1
47 60 1
47 61 1
47 62 1
47 63 1
48 50 1
48 53 1
48 55 1
48 57 1
48 59 1
48 63 1
48 64 1
49 50 1
49 52 1
49 53 1
49 54 1
49 55 1
49 57 1
49 58 1
49 59 1
49 61 1
49 63 1
49 64 1
50 52 1
50 53 1
50 55 1
50 59 1
50 62 1
50 63 1
51 54 1
51 55 1
51 57 1
51 58 1
51 60 1
51 63 1
51 64 1
52 54 1
52 55 1
52 57 1
52 58 1
52 63 1
53 61 1
53 63 1
53 64 1
54 55 1
54 57 1
54 58 1
54 59 1
54 60 1
54 62 1
54 64 1
55 56 1
55 57 1
55 59 1
55 60 1
55 62 1
55 63 1
56 57 1
56 59 1
56 61 1
56 62 1
56 64 1
57 58 1
57 62 1
57 63 1
58 59 1
58 60 1
58 61 1
58 64 1
59 60 1
59 61 1
59 62 1
59 63 1
59 64 1
60 61 1
60 63 1
61 63 1
62 63 1
63 64 1
8 25 36 49 64